Route #1:
Route #2: 20
Route #3: 27
Route #4: 25 22 4 9 26 18 8 15
Route #5: 13 12
Route #6: 16 2
Route #7: 17 3 14
Route #8: 7
Route #9: 5
Route #10: 23 19
Route #11: 28 11 31 24
Route #12: 30 6 29 10 1
Route #13: 21

Cost: 2146.5882847898347
